c A SAT instance generated from a 3-CNF formula that had 45 clauses and 15 variables
p cnf 15 45
-7 12 14 0
10 7 3 0
12 9 -5 0
-8 -10 11 0
-5 -14 8 0
-10 -14 -13 0
5 2 -11 0
5 3 15 0
1 13 8 0
-11 -7 -3 0
3 -10 2 0
-4 5 -2 0
-13 12 -2 0
-15 12 4 0
11 5 -6 0
7 -8 -2 0
10 -15 14 0
5 3 -9 0
11 9 3 0
-13 -3 -7 0
-1 -4 -3 0
1 11 -15 0
9 7 12 0
7 10 2 0
10 -7 4 0
8 14 7 0
-1 -12 -13 0
-10 -6 -1 0
-1 -4 2 0
6 9 13 0
-13 2 7 0
2 7 8 0
-10 -8 1 0
-11 15 -14 0
6 -13 -14 0
-2 -14 -11 0
-15 -4 12 0
9 15 -3 0
9 -5 7 0
-9 12 5 0
-10 5 1 0
12 11 -9 0
-8 6 -13 0
-2 15 -6 0
-8 9 -2 0
